data/dat/R033.dat
/* Cplex Data generated on 2017-12-15 */

k = 6;

b = 3;

AtomicConstraints = {
	 <1, 2>,
	 <3, 2>,
	 }; 

SoftAtomicConstraints = {
	 <3, 1>,
	 <5, 4>,
	 <6, 5>,
	 }; 

DisjunctiveConstraints = {
	 <5, 6, 5, 4>,
	 }; 

DirectSuccessors = {
	 }; 

