translation_toolchain/data/dzn/R033.dzn
k = 6;
b = 3;
AtomicConstraints =  [|
1, 2|
	3, 2|];
DisjunctiveConstraints =  [|5, 6, 5, 4|];
SoftAtomicConstraints =  [|
3, 1|
5, 4|
6, 5|];
DirectSuccessors =  [];
